p cnf 50 10
x -1 -5 -7 8 10 -12 16 18 19 21 22 -24 -25 -27 -28 -32 33 -35 37 39 42 47 48 -50 0
x 3 -6 -7 -8 -10 11 14 -16 17 18 20 22 -23 25 27 -28 29 -31 34 -40 41 44 46 47 50 0
x -1 -2 5 -6 -9 -12 15 -16 18 -20 -21 -22 -24 -26 -29 -32 -34 -35 37 -38 -39 40 -43 46 48 -49 0
x -1 5 6 -10 11 -12 14 15 -16 -21 -23 -24 -26 28 29 -32 38 39 45 -46 -48 -50 0
x 1 -2 4 -8 11 13 -14 -20 -21 22 26 -28 -29 -32 -34 36 -37 -38 -40 -42 -44 -45 -49 50 0
x 3 5 -11 14 -15 17 -21 24 -26 -27 -28 30 -33 -34 -35 -38 -41 -43 44 45 46 -48 -50 0
x -2 -4 -5 -8 -10 -12 -15 -16 -17 -18 19 20 -21 23 -25 -27 -31 -32 -33 -34 38 -39 -42 43 44 45 -47 50 0
x 8 10 -12 13 17 19 20 21 -22 25 26 27 -31 -32 -35 -38 -39 40 41 42 45 -47 -49 -50 0
x 2 -4 -6 9 10 -11 -12 -14 -17 -18 19 -20 23 -27 29 -30 32 -35 -39 -42 -45 46 49 -50 0
x -3 8 9 10 11 12 -14 -16 19 -20 -21 25 -26 -27 28 -30 31 -32 -33 34 -35 -36 37 -38 -39 -41 -43 -45 -50 0
g -15